
n_res = 6;
rcap = [78, 68, 73, 68, 1360, 1573];
rtype = [1, 1, 1, 1, 2, 2];
n_tasks = 100;
modes =  [{1, 2, 3, 4, 5, 6}, {7, 8, 9, 10, 11, 12}, {13, 14, 15, 16, 17, 18}, {19, 20, 21, 22, 23, 24}, {25, 26, 27, 28, 29, 30}, {31, 32, 33, 34, 35, 36}, {37, 38, 39, 40, 41, 42}, {43, 44, 45, 46, 47, 48}, {49, 50, 51, 52, 53, 54}, {55, 56, 57, 58, 59, 60}, {61, 62, 63, 64, 65, 66}, {67, 68, 69, 70, 71, 72}, {73, 74, 75, 76, 77, 78}, {79, 80, 81, 82, 83, 84}, {85, 86, 87, 88, 89, 90}, {91, 92, 93, 94, 95, 96}, {97, 98, 99, 100, 101, 102}, {103, 104, 105, 106, 107, 108}, {109, 110, 111, 112, 113, 114}, {115, 116, 117, 118, 119, 120}, {121, 122, 123, 124, 125, 126}, {127, 128, 129, 130, 131, 132}, {133, 134, 135, 136, 137, 138}, {139, 140, 141, 142, 143, 144}, {145, 146, 147, 148, 149, 150}, {151, 152, 153, 154, 155, 156}, {157, 158, 159, 160, 161, 162}, {163, 164, 165, 166, 167, 168}, {169, 170, 171, 172, 173, 174}, {175, 176, 177, 178, 179, 180}, {181, 182, 183, 184, 185, 186}, {187, 188, 189, 190, 191, 192}, {193, 194, 195, 196, 197, 198}, {199, 200, 201, 202, 203, 204}, {205, 206, 207, 208, 209, 210}, {211, 212, 213, 214, 215, 216}, {217, 218, 219, 220, 221, 222}, {223, 224, 225, 226, 227, 228}, {229, 230, 231, 232, 233, 234}, {235, 236, 237, 238, 239, 240}, {241, 242, 243, 244, 245, 246}, {247, 248, 249, 250, 251, 252}, {253, 254, 255, 256, 257, 258}, {259, 260, 261, 262, 263, 264}, {265, 266, 267, 268, 269, 270}, {271, 272, 273, 274, 275, 276}, {277, 278, 279, 280, 281, 282}, {283, 284, 285, 286, 287, 288}, {289, 290, 291, 292, 293, 294}, {295, 296, 297, 298, 299, 300}, {301, 302, 303, 304, 305, 306}, {307, 308, 309, 310, 311, 312}, {313, 314, 315, 316, 317, 318}, {319, 320, 321, 322, 323, 324}, {325, 326, 327, 328, 329, 330}, {331, 332, 333, 334, 335, 336}, {337, 338, 339, 340, 341, 342}, {343, 344, 345, 346, 347, 348}, {349, 350, 351, 352, 353, 354}, {355, 356, 357, 358, 359, 360}, {361, 362, 363, 364, 365, 366}, {367, 368, 369, 370, 371, 372}, {373, 374, 375, 376, 377, 378}, {379, 380, 381, 382, 383, 384}, {385, 386, 387, 388, 389, 390}, {391, 392, 393, 394, 395, 396}, {397, 398, 399, 400, 401, 402}, {403, 404, 405, 406, 407, 408}, {409, 410, 411, 412, 413, 414}, {415, 416, 417, 418, 419, 420}, {421, 422, 423, 424, 425, 426}, {427, 428, 429, 430, 431, 432}, {433, 434, 435, 436, 437, 438}, {439, 440, 441, 442, 443, 444}, {445, 446, 447, 448, 449, 450}, {451, 452, 453, 454, 455, 456}, {457, 458, 459, 460, 461, 462}, {463, 464, 465, 466, 467, 468}, {469, 470, 471, 472, 473, 474}, {475, 476, 477, 478, 479, 480}, {481, 482, 483, 484, 485, 486}, {487, 488, 489, 490, 491, 492}, {493, 494, 495, 496, 497, 498}, {499, 500, 501, 502, 503, 504}, {505, 506, 507, 508, 509, 510}, {511, 512, 513, 514, 515, 516}, {517, 518, 519, 520, 521, 522}, {523, 524, 525, 526, 527, 528}, {529, 530, 531, 532, 533, 534}, {535, 536, 537, 538, 539, 540}, {541, 542, 543, 544, 545, 546}, {547, 548, 549, 550, 551, 552}, {553, 554, 555, 556, 557, 558}, {559, 560, 561, 562, 563, 564}, {565, 566, 567, 568, 569, 570}, {571, 572, 573, 574, 575, 576}, {577, 578, 579, 580, 581, 582}, {583, 584, 585, 586, 587, 588}, {589, 590, 591, 592, 593, 594}, {595, 596, 597, 598, 599, 600}];
succ =  [{99, 96, 95, 75, 74, 67, 66, 63, 62, 61, 60, 59, 55, 52, 51, 50, 47, 46, 38, 37, 36, 34, 32}, {100, 99, 73, 63, 62, 60, 58, 57, 55, 54, 53, 51, 50, 48, 46, 44, 33, 22, 17}, {75, 74, 67, 66, 63, 62, 61, 59, 55, 53, 52, 50, 48, 46, 40, 39, 37, 36, 28}, {100, 99, 96, 75, 68, 66, 64, 61, 59, 58, 57, 56, 55, 53, 51, 50, 47, 46, 41, 36, 22}, {73, 72, 61, 54, 53, 50, 47, 38, 30, 28, 24, 21}, {100, 98, 97, 96, 93, 65, 60, 59, 57, 51, 46, 36, 34, 24}, {100, 99, 98, 97, 96, 93, 91, 86, 75, 67, 65, 64, 63, 62, 60, 59, 58, 57, 56, 46, 36}, {73, 67, 64, 60, 55, 53, 52, 51, 48, 47, 44, 36}, {99, 95, 94, 91, 90, 89, 88, 74, 73, 67, 66, 65, 64, 61, 59, 55, 52, 51, 49}, {96, 95, 94, 93, 91, 88, 83, 75, 72, 70, 67, 66, 64, 62, 56, 51, 38}, {98, 97, 94, 93, 91, 87, 71, 65, 62, 51, 37, 36}, {100, 97, 96, 94, 91, 88, 85, 83, 72, 71, 67, 66, 65, 64, 62, 59, 55, 53, 50}, {97, 95, 94, 88, 85, 74, 72, 71, 70, 67, 66, 64, 59, 58, 55, 51, 47}, {99, 97, 70, 67, 64, 39, 21}, {100, 99, 97, 93, 92, 86, 85, 78, 72, 71, 69, 68, 65, 64, 61, 58, 41}, {96, 95, 94, 92, 91, 90, 89, 84, 83, 73, 70, 66, 64, 58, 55, 40}, {98, 97, 93, 91, 90, 87, 86, 71, 66, 65, 64, 61, 56, 36}, {95, 93, 91, 88, 87, 85, 73, 72, 71, 66, 59, 57, 53, 43}, {98, 96, 95, 93, 92, 91, 90, 89, 87, 86, 85, 84, 83, 77, 74, 73, 71, 70, 64, 58}, {97, 96, 95, 94, 93, 91, 89, 87, 85, 84, 74, 70, 69, 66, 59, 58, 51}, {93, 91, 89, 87, 85, 82, 81, 69, 66, 60, 51, 46}, {98, 93, 92, 91, 89, 88, 86, 85, 82, 81, 80, 79, 74, 72, 70, 69, 67}, {96, 95, 92, 91, 89, 88, 85, 83, 82, 80, 78, 73, 72, 67, 58, 53}, {99, 95, 92, 90, 88, 86, 85, 68, 67, 66, 64, 49}, {95, 94, 93, 92, 89, 85, 81, 71, 69, 67, 64, 54}, {100, 99, 96, 94, 93, 90, 88, 85, 83, 82, 80, 69, 59, 53}, {96, 95, 91, 90, 89, 86, 85, 79, 66, 59, 46}, {97, 96, 95, 94, 93, 91, 88, 87, 85, 83, 77, 76, 71, 51}, {99, 96, 92, 91, 89, 88, 86, 81, 79, 78, 77, 74, 73, 71, 65}, {98, 95, 91, 88, 84, 83, 80, 78, 69, 68, 60, 58}, {100, 95, 90, 87, 86, 84, 83, 80, 77, 70, 58, 55}, {98, 93, 90, 85, 84, 81, 71, 70, 68, 65, 56}, {95, 90, 88, 84, 83, 80, 79, 78, 77, 69, 65, 64}, {91, 88, 86, 82, 78, 77, 73, 69, 53}, {91, 89, 88, 70, 69, 68, 58}, {88, 85, 83, 81, 80, 77, 72, 70, 69}, {90, 78, 64, 58, 56}, {97, 90, 86, 85, 84, 81, 77, 69, 65}, {93, 92, 91, 82, 80, 79, 78, 77, 69}, {99, 88, 87, 85, 80, 78, 77, 65}, {95, 89, 87, 80, 79, 73, 60}, {94, 85, 82, 76, 51}, {94, 92, 90, 89, 86, 84, 81, 79, 76}, {91, 87, 83, 81, 80, 78, 65}, {91, 89, 86, 83, 78, 69, 65}, {94, 88, 84, 83, 78, 77, 71}, {89, 83, 82, 79, 78, 77, 76}, {96, 91, 81, 79, 78, 69}, {83, 80, 77, 58}, {81, 79, 70, 69}, {92, 86, 80, 79, 78}, {100, 98, 87, 85, 80}, {84, 81, 79, 76}, {86, 83, 79, 78}, {93, 79, 69}, {89, 77, 69}, {83, 79, 69}, {81, 79, 76}, {78, 77, 76}, {90, 77, 76}, {83, 77, 76}, {90, 79, 76}, {92, 87, 77}, {82, 76}, {82, 76}, {78, 76}, {87, 77}, {82, 77}, {76}, {78}, {80}, {84}, {76}, {76}, {77}, {}, {}, {}, {}, {}, {}, {}, {}, {}, {}, {}, {}, {}, {}, {}, {}, {}, {}, {}, {}, {}, {}, {}, {}, {}];
n_opt = 600;
dur = [6, 15, 20, 21, 25, 29, 2, 10, 13, 14, 24, 27, 4, 8, 10, 14, 15, 20, 1, 8, 10, 19, 24, 29, 2, 6, 10, 18, 24, 27, 1, 3, 11, 19, 23, 28, 11, 12, 15, 15, 16, 25, 3, 12, 16, 27, 28, 30, 5, 21, 24, 25, 26, 27, 2, 12, 24, 25, 27, 30, 8, 9, 10, 15, 20, 28, 3, 6, 7, 20, 21, 24, 11, 12, 14, 15, 23, 26, 6, 14, 18, 20, 22, 24, 4, 5, 6, 8, 12, 29, 1, 11, 16, 22, 26, 27, 12, 13, 14, 17, 24, 27, 3, 18, 19, 21, 23, 28, 5, 6, 7, 12, 21, 27, 1, 2, 13, 15, 22, 23, 7, 8, 12, 20, 21, 26, 2, 5, 14, 18, 24, 25, 2, 9, 11, 17, 29, 30, 1, 11, 21, 26, 27, 28, 11, 15, 16, 20, 23, 27, 4, 5, 14, 17, 23, 29, 2, 5, 7, 11, 15, 24, 5, 12, 14, 15, 16, 17, 5, 8, 9, 11, 17, 21, 5, 15, 20, 21, 26, 28, 4, 9, 11, 14, 15, 22, 2, 8, 9, 11, 28, 30, 6, 15, 21, 22, 23, 26, 1, 8, 14, 17, 20, 28, 2, 6, 14, 20, 24, 30, 1, 3, 4, 5, 7, 8, 1, 6, 7, 8, 9, 21, 1, 8, 11, 18, 28, 30, 8, 13, 14, 20, 22, 30, 6, 10, 14, 15, 16, 26, 1, 2, 3, 21, 26, 29, 4, 11, 12, 13, 14, 23, 8, 9, 15, 18, 24, 27, 6, 11, 17, 20, 23, 29, 5, 12, 18, 19, 20, 24, 2, 3, 4, 11, 19, 22, 5, 6, 10, 12, 18, 19, 2, 3, 9, 12, 23, 29, 1, 8, 14, 20, 25, 30, 1, 5, 9, 21, 22, 24, 7, 18, 19, 20, 25, 27, 6, 10, 14, 15, 16, 26, 1, 8, 9, 12, 16, 20, 4, 14, 15, 19, 22, 25, 10, 11, 12, 13, 21, 23, 3, 4, 8, 13, 14, 27, 2, 3, 8, 14, 17, 19, 3, 13, 14, 25, 28, 29, 10, 13, 14, 21, 28, 30, 1, 10, 14, 16, 26, 27, 7, 11, 17, 18, 28, 29, 4, 5, 12, 20, 27, 29, 4, 7, 14, 17, 18, 19, 2, 10, 13, 14, 16, 30, 2, 3, 10, 21, 25, 30, 1, 2, 8, 11, 12, 17, 5, 8, 11, 15, 29, 30, 6, 11, 16, 17, 20, 28, 2, 8, 11, 13, 21, 30, 2, 4, 5, 15, 20, 21, 1, 4, 5, 6, 20, 28, 3, 5, 11, 14, 19, 28, 3, 4, 13, 22, 23, 24, 6, 7, 12, 17, 23, 29, 6, 13, 14, 19, 20, 25, 6, 16, 19, 20, 21, 24, 1, 3, 10, 14, 19, 30, 2, 7, 9, 12, 16, 24, 5, 8, 13, 16, 19, 22, 1, 3, 4, 11, 22, 27, 5, 7, 12, 13, 14, 22, 1, 7, 11, 28, 29, 30, 10, 11, 13, 17, 18, 24, 11, 12, 23, 24, 25, 26, 6, 8, 9, 11, 19, 26, 5, 7, 14, 25, 26, 29, 1, 2, 10, 12, 14, 15, 8, 12, 14, 15, 22, 29, 13, 17, 19, 23, 26, 28, 2, 3, 4, 5, 6, 13, 11, 16, 19, 20, 24, 25, 2, 11, 14, 24, 28, 30, 7, 12, 14, 17, 22, 26, 1, 7, 20, 22, 29, 30, 2, 8, 13, 16, 27, 29, 2, 3, 11, 16, 17, 24, 2, 9, 10, 20, 22, 29, 1, 10, 11, 20, 25, 27, 7, 8, 11, 17, 18, 20, 2, 10, 11, 14, 20, 25];
rreq = [|4, 3, 3, 2, 1, 1, 4, 4, 3, 2, 2, 1, 2, 2, 2, 1, 1, 1, 1, 1, 1, 1, 1, 1, 4, 4, 4, 4, 4, 4, 5, 4, 4, 4, 3, 3, 4, 4, 4, 3, 3, 3, 4, 3, 3, 3, 3, 3, 3, 3, 3, 3, 3, 3, 3, 2, 2, 2, 1, 1, 4, 4, 4, 4, 4, 4, 4, 4, 3, 3, 2, 2, 5, 4, 4, 3, 3, 2, 4, 4, 4, 3, 2, 2, 5, 4, 4, 3, 2, 2, 5, 5, 5, 5, 5, 5, 4, 3, 3, 3, 1, 1, 2, 2, 2, 2, 2, 2, 4, 3, 3, 2, 1, 1, 2, 1, 1, 1, 1, 1, 5, 5, 5, 5, 5, 5, 4, 3, 3, 3, 1, 1, 2, 2, 2, 2, 2, 2, 2, 2, 2, 2, 2, 2, 5, 4, 4, 4, 3, 3, 4, 3, 3, 2, 1, 1, 3, 3, 2, 2, 2, 1, 2, 2, 2, 1, 1, 1, 5, 4, 4, 4, 4, 4, 4, 4, 3, 3, 2, 2, 5, 4, 4, 4, 3, 3, 2, 2, 2, 2, 1, 1, 5, 4, 4, 3, 2, 2, 3, 3, 3, 2, 2, 2, 3, 3, 3, 3, 3, 3, 4, 3, 3, 2, 2, 2, 1, 1, 1, 1, 1, 1, 4, 4, 4, 4, 4, 4, 3, 3, 3, 3, 3, 3, 4, 3, 3, 2, 1, 1, 3, 3, 3, 3, 3, 3, 4, 3, 3, 2, 2, 2, 2, 2, 2, 2, 2, 2, 4, 3, 3, 2, 2, 1, 3, 2, 2, 2, 1, 1, 4, 4, 3, 3, 3, 2, 4, 3, 3, 3, 3, 3, 4, 4, 3, 2, 2, 1, 4, 4, 4, 4, 4, 4, 5, 4, 3, 3, 3, 2, 4, 4, 3, 3, 3, 2, 3, 3, 2, 2, 2, 1, 4, 4, 3, 2, 2, 1, 4, 3, 3, 3, 2, 2, 5, 3, 3, 2, 1, 1, 2, 2, 2, 1, 1, 1, 2, 2, 2, 2, 2, 2, 4, 4, 4, 4, 3, 3, 5, 4, 3, 3, 3, 2, 3, 3, 3, 3, 3, 3, 4, 3, 3, 3, 3, 3, 4, 4, 4, 3, 2, 2, 3, 3, 3, 3, 3, 3, 2, 2, 2, 2, 2, 2, 2, 2, 2, 2, 2, 2, 4, 3, 3, 3, 2, 2, 4, 3, 3, 3, 2, 2, 1, 1, 1, 1, 1, 1, 4, 4, 4, 3, 3, 3, 4, 4, 4, 4, 4, 4, 4, 3, 3, 3, 3, 3, 1, 1, 1, 1, 1, 1, 1, 1, 1, 1, 1, 1, 4, 4, 4, 4, 4, 4, 2, 2, 2, 2, 2, 2, 3, 3, 3, 2, 2, 2, 1, 1, 1, 1, 1, 1, 4, 3, 3, 3, 3, 3, 3, 3, 3, 3, 2, 2, 5, 5, 5, 5, 5, 5, 4, 4, 4, 4, 4, 4, 4, 3, 3, 3, 1, 1, 2, 2, 2, 2, 2, 2, 5, 4, 4, 4, 4, 4, 3, 2, 2, 2, 2, 2, 2, 2, 2, 1, 1, 1, 3, 3, 3, 2, 1, 1, 2, 2, 2, 2, 2, 2, 2, 2, 2, 2, 2, 2, 4, 3, 3, 2, 1, 1, 4, 3, 3, 2, 2, 2, 4, 4, 4, 4, 4, 4, 2, 1, 1, 1, 1, 1, 3, 3, 3, 3, 2, 2, 3, 2, 2, 2, 2, 2, 5, 4, 4, 3, 2, 2, 3, 2, 2, 2, 2, 2, 3, 3, 3, 3, 2, 2, 4, 4, 4, 4, 3, 3, 3, 3, 3, 3, 3, 3
 |4, 3, 3, 2, 1, 1, 4, 4, 4, 4, 4, 4, 1, 1, 1, 1, 1, 1, 3, 3, 3, 3, 2, 2, 3, 2, 2, 2, 1, 1, 2, 2, 2, 2, 2, 2, 4, 4, 4, 4, 4, 4, 1, 1, 1, 1, 1, 1, 3, 3, 3, 3, 2, 2, 3, 3, 3, 3, 3, 3, 3, 3, 3, 2, 2, 2, 2, 1, 1, 1, 1, 1, 5, 4, 4, 4, 4, 4, 3, 2, 2, 2, 1, 1, 5, 4, 4, 4, 4, 4, 2, 2, 2, 2, 2, 2, 3, 3, 2, 2, 2, 1, 4, 3, 3, 3, 3, 3, 3, 3, 2, 2, 1, 1, 2, 2, 2, 2, 2, 2, 3, 3, 3, 3, 3, 3, 5, 4, 3, 3, 3, 2, 2, 2, 2, 2, 2, 2, 4, 4, 3, 3, 1, 1, 4, 3, 3, 3, 2, 2, 3, 3, 3, 2, 1, 1, 2, 2, 2, 2, 2, 2, 4, 3, 3, 2, 2, 2, 5, 3, 3, 3, 2, 1, 4, 4, 4, 4, 4, 4, 5, 4, 4, 4, 4, 4, 3, 3, 3, 3, 3, 3, 2, 2, 2, 2, 2, 2, 2, 2, 2, 2, 2, 2, 2, 2, 2, 1, 1, 1, 5, 3, 3, 3, 2, 1, 4, 3, 2, 2, 2, 1, 4, 4, 3, 2, 2, 1, 4, 3, 2, 2, 2, 1, 1, 1, 1, 1, 1, 1, 3, 3, 3, 3, 2, 2, 5, 3, 3, 2, 2, 1, 3, 3, 3, 3, 2, 2, 4, 4, 4, 4, 3, 3, 4, 4, 4, 4, 4, 4, 5, 4, 4, 3, 3, 2, 4, 4, 4, 4, 4, 4, 4, 3, 3, 3, 2, 2, 5, 4, 4, 4, 4, 4, 5, 4, 4, 4, 4, 4, 5, 4, 4, 4, 4, 4, 5, 4, 4, 3, 3, 3, 3, 3, 3, 3, 3, 3, 4, 4, 4, 4, 4, 4, 4, 3, 3, 2, 1, 1, 3, 3, 2, 2, 1, 1, 4, 3, 3, 3, 3, 3, 3, 3, 3, 3, 3, 3, 3, 3, 3, 3, 3, 3, 4, 4, 4, 3, 2, 2, 2, 2, 2, 2, 2, 2, 3, 2, 2, 2, 2, 2, 1, 1, 1, 1, 1, 1, 5, 4, 3, 3, 2, 2, 2, 1, 1, 1, 1, 1, 3, 2, 2, 2, 2, 2, 4, 3, 3, 2, 2, 1, 5, 4, 4, 4, 3, 3, 1, 1, 1, 1, 1, 1, 4, 4, 3, 3, 3, 2, 3, 3, 3, 3, 3, 3, 4, 4, 3, 3, 2, 1, 3, 3, 3, 3, 2, 2, 3, 3, 3, 3, 3, 3, 4, 3, 3, 3, 3, 3, 4, 3, 3, 2, 2, 1, 5, 4, 3, 3, 2, 2, 4, 4, 4, 3, 2, 2, 5, 4, 4, 3, 3, 3, 4, 4, 4, 4, 4, 4, 5, 4, 3, 2, 1, 1, 4, 4, 4, 4, 4, 4, 3, 3, 3, 3, 3, 3, 4, 4, 4, 3, 2, 2, 2, 1, 1, 1, 1, 1, 4, 3, 3, 3, 3, 3, 3, 2, 2, 2, 2, 2, 4, 3, 2, 2, 2, 1, 3, 2, 2, 2, 1, 1, 4, 3, 3, 2, 1, 1, 4, 4, 4, 3, 3, 2, 3, 3, 3, 3, 3, 3, 4, 4, 3, 2, 2, 1, 1, 1, 1, 1, 1, 1, 4, 3, 3, 2, 2, 2, 3, 3, 3, 3, 3, 3, 2, 2, 2, 2, 2, 2, 4, 4, 3, 3, 2, 1, 5, 3, 3, 3, 2, 1, 2, 2, 2, 2, 2, 2
 |4, 4, 4, 3, 3, 2, 2, 1, 1, 1, 1, 1, 5, 4, 3, 3, 2, 2, 4, 4, 4, 4, 4, 4, 4, 4, 3, 3, 2, 1, 5, 3, 3, 3, 2, 1, 5, 4, 4, 4, 4, 4, 2, 1, 1, 1, 1, 1, 4, 3, 3, 3, 3, 3, 4, 3, 2, 2, 2, 1, 2, 2, 2, 2, 2, 2, 5, 4, 4, 4, 4, 4, 3, 3, 3, 3, 2, 2, 4, 3, 2, 2, 1, 1, 4, 4, 4, 4, 4, 4, 3, 3, 3, 3, 3, 3, 4, 3, 3, 2, 1, 1, 4, 3, 2, 2, 2, 1, 2, 1, 1, 1, 1, 1, 1, 1, 1, 1, 1, 1, 2, 2, 2, 2, 1, 1, 5, 4, 4, 4, 3, 3, 2, 1, 1, 1, 1, 1, 2, 2, 2, 2, 2, 2, 4, 3, 3, 3, 3, 3, 5, 4, 4, 4, 3, 3, 4, 4, 4, 3, 2, 2, 3, 2, 2, 2, 2, 2, 4, 3, 3, 3, 2, 1, 3, 2, 2, 2, 2, 2, 3, 3, 3, 3, 3, 3, 4, 4, 4, 3, 3, 3, 5, 4, 4, 4, 4, 4, 3, 2, 2, 2, 2, 2, 3, 2, 2, 1, 1, 1, 4, 3, 3, 2, 1, 1, 4, 4, 4, 4, 4, 4, 4, 3, 3, 2, 2, 1, 4, 3, 3, 3, 3, 3, 5, 4, 4, 3, 3, 2, 2, 2, 2, 2, 2, 2, 1, 1, 1, 1, 1, 1, 3, 2, 2, 2, 2, 2, 2, 2, 2, 2, 1, 1, 3, 2, 2, 2, 2, 2, 3, 3, 3, 3, 2, 2, 2, 2, 2, 2, 2, 2, 4, 3, 3, 2, 2, 2, 3, 2, 2, 2, 2, 2, 5, 5, 5, 5, 5, 5, 4, 4, 3, 3, 3, 2, 5, 4, 3, 3, 2, 2, 2, 2, 2, 2, 2, 2, 5, 4, 4, 4, 4, 4, 3, 2, 2, 2, 2, 2, 2, 1, 1, 1, 1, 1, 3, 3, 3, 2, 1, 1, 4, 3, 3, 2, 2, 1, 5, 4, 4, 4, 4, 4, 3, 3, 3, 3, 3, 3, 1, 1, 1, 1, 1, 1, 3, 3, 3, 3, 3, 3, 5, 4, 4, 4, 4, 4, 3, 2, 2, 1, 1, 1, 5, 4, 4, 4, 4, 4, 4, 3, 2, 2, 1, 1, 4, 3, 3, 2, 2, 1, 3, 3, 3, 2, 2, 2, 1, 1, 1, 1, 1, 1, 4, 4, 3, 3, 2, 2, 2, 2, 2, 1, 1, 1, 2, 2, 2, 2, 2, 2, 5, 5, 5, 5, 5, 5, 2, 2, 2, 2, 2, 2, 3, 3, 3, 3, 2, 2, 5, 4, 4, 3, 3, 3, 4, 4, 4, 4, 3, 3, 4, 4, 3, 3, 2, 2, 3, 3, 3, 3, 3, 3, 3, 3, 2, 2, 1, 1, 4, 4, 3, 3, 1, 1, 4, 4, 3, 3, 1, 1, 2, 2, 2, 2, 2, 2, 4, 3, 3, 3, 2, 2, 3, 3, 3, 3, 3, 3, 3, 3, 3, 2, 1, 1, 4, 3, 3, 3, 2, 2, 5, 4, 4, 4, 4, 4, 3, 3, 2, 2, 2, 1, 3, 3, 3, 3, 2, 2, 3, 3, 3, 3, 3, 3, 5, 3, 3, 3, 2, 1, 1, 1, 1, 1, 1, 1, 3, 3, 3, 3, 3, 3, 5, 4, 4, 4, 4, 4, 2, 1, 1, 1, 1, 1, 5, 4, 4, 4, 4, 4, 3, 3, 3, 3, 3, 3, 4, 3, 3, 3, 3, 3, 3, 3, 3, 3, 3, 3
 |2, 2, 2, 2, 2, 2, 4, 4, 4, 3, 3, 3, 4, 4, 4, 4, 3, 3, 3, 3, 3, 3, 2, 2, 4, 3, 3, 2, 2, 2, 4, 4, 4, 4, 4, 4, 4, 4, 4, 4, 4, 4, 4, 4, 4, 4, 4, 4, 1, 1, 1, 1, 1, 1, 5, 3, 3, 2, 1, 1, 1, 1, 1, 1, 1, 1, 2, 2, 2, 2, 2, 2, 3, 3, 3, 3, 3, 3, 4, 4, 4, 3, 3, 3, 3, 3, 2, 2, 1, 1, 5, 4, 3, 3, 3, 2, 3, 3, 3, 3, 3, 3, 2, 2, 2, 1, 1, 1, 4, 4, 4, 4, 4, 4, 3, 3, 3, 3, 3, 3, 4, 3, 3, 3, 3, 3, 4, 4, 4, 4, 4, 4, 5, 5, 5, 5, 5, 5, 2, 2, 2, 2, 1, 1, 4, 4, 4, 4, 4, 4, 1, 1, 1, 1, 1, 1, 5, 5, 5, 5, 5, 5, 3, 3, 3, 2, 2, 2, 3, 3, 3, 2, 1, 1, 2, 2, 2, 2, 2, 2, 2, 1, 1, 1, 1, 1, 2, 2, 2, 2, 2, 2, 2, 2, 2, 2, 2, 2, 2, 2, 2, 2, 2, 2, 3, 3, 3, 3, 2, 2, 4, 3, 2, 2, 1, 1, 2, 2, 2, 2, 2, 2, 2, 2, 2, 1, 1, 1, 2, 1, 1, 1, 1, 1, 3, 2, 2, 2, 2, 2, 4, 4, 4, 4, 3, 3, 1, 1, 1, 1, 1, 1, 5, 4, 4, 4, 4, 4, 5, 3, 3, 3, 1, 1, 4, 3, 3, 3, 3, 3, 4, 4, 3, 3, 3, 2, 4, 4, 4, 4, 4, 4, 3, 2, 2, 2, 2, 2, 3, 3, 3, 3, 3, 3, 2, 2, 2, 2, 2, 2, 4, 4, 3, 2, 1, 1, 3, 3, 3, 3, 3, 3, 3, 2, 2, 2, 1, 1, 4, 4, 4, 4, 4, 4, 5, 5, 5, 5, 5, 5, 5, 3, 3, 2, 1, 1, 3, 3, 3, 3, 2, 2, 1, 1, 1, 1, 1, 1, 4, 3, 3, 3, 3, 3, 2, 2, 2, 1, 1, 1, 3, 3, 3, 3, 3, 3, 4, 4, 4, 4, 4, 4, 3, 3, 3, 3, 3, 3, 4, 4, 4, 4, 3, 3, 4, 4, 3, 3, 2, 1, 3, 2, 2, 2, 2, 2, 3, 2, 2, 2, 2, 2, 4, 3, 3, 2, 2, 1, 4, 4, 4, 4, 3, 3, 3, 3, 3, 2, 1, 1, 2, 2, 2, 2, 2, 2, 3, 3, 3, 2, 2, 2, 2, 1, 1, 1, 1, 1, 4, 3, 3, 2, 2, 1, 1, 1, 1, 1, 1, 1, 5, 4, 4, 4, 4, 4, 3, 2, 2, 2, 2, 2, 5, 4, 4, 3, 3, 3, 2, 2, 2, 2, 1, 1, 4, 3, 3, 3, 3, 3, 2, 2, 2, 2, 2, 2, 5, 5, 5, 5, 5, 5, 1, 1, 1, 1, 1, 1, 5, 4, 3, 3, 2, 1, 4, 3, 3, 3, 1, 1, 3, 3, 3, 2, 2, 2, 1, 1, 1, 1, 1, 1, 4, 3, 3, 2, 2, 1, 5, 4, 4, 3, 3, 3, 2, 2, 2, 2, 2, 2, 5, 4, 4, 4, 4, 4, 4, 3, 3, 3, 3, 3, 5, 4, 4, 4, 4, 4, 4, 4, 4, 4, 4, 4, 4, 4, 4, 4, 4, 4, 3, 3, 3, 2, 2, 1, 2, 1, 1, 1, 1, 1, 5, 4, 3, 3, 3, 2, 4, 3, 3, 3, 2, 2, 3, 3, 3, 3, 3, 3
 |19, 17, 15, 12, 11, 8, 21, 21, 21, 21, 21, 21, 9, 8, 8, 6, 5, 4, 12, 12, 12, 12, 12, 12, 12, 12, 10, 9, 8, 6, 17, 17, 16, 16, 15, 15, 25, 25, 25, 25, 24, 24, 6, 6, 6, 6, 6, 6, 6, 5, 4, 4, 3, 2, 23, 21, 20, 19, 19, 17, 11, 10, 10, 9, 9, 8, 22, 19, 17, 11, 8, 6, 12, 10, 9, 8, 8, 7, 8, 7, 7, 7, 6, 6, 16, 16, 15, 13, 12, 11, 25, 24, 21, 19, 16, 16, 12, 10, 9, 7, 4, 3, 12, 9, 7, 6, 6, 3, 24, 21, 19, 16, 11, 5, 10, 10, 9, 8, 7, 6, 15, 13, 12, 11, 10, 9, 23, 19, 15, 14, 13, 9, 25, 22, 20, 18, 14, 14, 21, 19, 18, 16, 14, 12, 20, 19, 18, 15, 13, 12, 28, 26, 21, 19, 16, 14, 9, 9, 9, 8, 7, 7, 24, 23, 21, 21, 18, 18, 19, 19, 16, 14, 10, 7, 24, 19, 13, 11, 9, 5, 17, 16, 16, 15, 15, 14, 13, 11, 9, 7, 6, 4, 25, 19, 14, 10, 5, 2, 7, 7, 7, 7, 7, 7, 27, 23, 22, 17, 14, 12, 13, 11, 9, 7, 3, 2, 21, 21, 20, 20, 19, 19, 4, 4, 4, 4, 4, 4, 24, 22, 18, 17, 13, 12, 26, 25, 25, 25, 25, 25, 20, 17, 14, 13, 10, 9, 22, 20, 17, 15, 14, 11, 12, 11, 11, 11, 10, 10, 8, 7, 6, 4, 4, 2, 23, 22, 19, 17, 16, 13, 16, 13, 9, 8, 6, 3, 16, 16, 16, 16, 16, 16, 27, 26, 25, 23, 21, 21, 12, 11, 10, 9, 8, 5, 6, 6, 6, 6, 6, 6, 22, 21, 20, 19, 16, 16, 7, 6, 5, 5, 4, 3, 29, 28, 27, 26, 24, 24, 18, 14, 12, 11, 6, 4, 15, 13, 9, 7, 6, 5, 23, 20, 19, 18, 13, 11, 11, 10, 9, 8, 7, 6, 29, 20, 19, 12, 11, 5, 24, 22, 16, 16, 11, 9, 7, 6, 6, 4, 3, 3, 19, 18, 16, 15, 14, 13, 13, 12, 9, 8, 5, 4, 28, 25, 22, 18, 18, 15, 15, 14, 12, 11, 9, 7, 12, 10, 10, 9, 8, 8, 14, 11, 10, 8, 3, 1, 23, 20, 20, 17, 15, 15, 15, 14, 13, 12, 12, 10, 25, 21, 20, 18, 16, 14, 9, 7, 6, 6, 4, 3, 11, 10, 8, 8, 6, 5, 17, 13, 11, 10, 7, 2, 9, 9, 9, 9, 9, 9, 28, 28, 28, 28, 28, 28, 9, 6, 6, 4, 2, 1, 25, 21, 21, 17, 17, 14, 10, 7, 6, 5, 4, 2, 16, 16, 16, 16, 16, 16, 23, 22, 22, 22, 22, 22, 14, 12, 8, 8, 4, 3, 18, 18, 13, 11, 7, 5, 11, 11, 11, 10, 10, 9, 9, 8, 8, 7, 7, 7, 20, 19, 17, 15, 13, 13, 29, 28, 27, 26, 25, 23, 15, 13, 10, 9, 7, 6, 19, 17, 16, 16, 14, 14, 22, 17, 17, 12, 11, 9, 28, 24, 18, 17, 11, 6, 8, 7, 7, 7, 7, 7, 28, 24, 22, 17, 14, 12, 6, 5, 4, 3, 2, 2, 4, 3, 3, 2, 2, 1, 17, 16, 14, 13, 12, 12, 26, 26, 26, 26, 26, 26, 25, 21, 17, 15, 11, 11, 13, 12, 12, 12, 11, 11, 26, 26, 26, 26, 26, 26, 27, 26, 24, 23, 19, 19, 10, 8, 7, 6, 3, 3
 |27, 22, 18, 16, 11, 11, 30, 28, 28, 27, 26, 24, 11, 9, 9, 7, 7, 6, 22, 21, 14, 13, 8, 1, 23, 21, 19, 16, 16, 12, 6, 5, 4, 3, 3, 2, 6, 6, 5, 6, 6, 5, 8, 7, 6, 5, 4, 3, 30, 29, 29, 28, 29, 29, 29, 25, 21, 20, 19, 15, 17, 13, 11, 9, 7, 5, 29, 27, 27, 24, 23, 21, 15, 14, 12, 11, 10, 10, 7, 7, 7, 7, 7, 6, 26, 22, 17, 16, 13, 8, 24, 24, 24, 24, 24, 24, 25, 24, 23, 22, 21, 20, 24, 19, 19, 16, 12, 12, 27, 25, 16, 15, 11, 4, 1, 1, 1, 1, 1, 1, 27, 25, 25, 22, 20, 19, 20, 20, 20, 20, 20, 20, 24, 24, 24, 23, 23, 22, 25, 21, 18, 15, 8, 3, 15, 11, 10, 8, 7, 6, 23, 20, 16, 11, 10, 4, 20, 19, 19, 18, 17, 17, 28, 23, 20, 16, 13, 9, 23, 20, 20, 18, 16, 13, 21, 20, 19, 19, 19, 18, 24, 24, 22, 22, 21, 20, 27, 27, 25, 21, 17, 17, 27, 26, 25, 25, 24, 24, 23, 21, 17, 14, 11, 6, 28, 26, 25, 23, 22, 21, 13, 13, 12, 12, 11, 10, 28, 26, 26, 22, 20, 20, 11, 10, 7, 6, 5, 2, 12, 10, 10, 7, 4, 1, 18, 16, 15, 11, 8, 6, 19, 18, 15, 14, 13, 10, 9, 8, 7, 6, 6, 4, 24, 21, 16, 15, 12, 10, 29, 26, 25, 23, 19, 19, 26, 24, 24, 22, 21, 21, 13, 10, 8, 8, 6, 4, 15, 14, 12, 11, 10, 7, 7, 7, 6, 6, 6, 5, 27, 26, 25, 24, 22, 21, 20, 20, 18, 17, 16, 15, 27, 25, 24, 20, 18, 16, 29, 23, 23, 19, 14, 14, 14, 13, 10, 8, 4, 2, 28, 23, 21, 13, 9, 4, 8, 7, 7, 6, 6, 6, 16, 14, 12, 8, 6, 6, 16, 14, 10, 9, 3, 2, 18, 17, 16, 15, 13, 12, 22, 20, 16, 13, 6, 2, 26, 21, 18, 16, 12, 9, 27, 26, 25, 24, 24, 23, 25, 23, 19, 17, 15, 10, 21, 19, 19, 17, 16, 13, 16, 15, 14, 14, 13, 12, 22, 22, 20, 20, 19, 17, 25, 20, 20, 15, 12, 8, 17, 15, 11, 8, 6, 5, 26, 25, 24, 24, 22, 22, 26, 26, 26, 26, 25, 25, 17, 15, 11, 7, 7, 1, 8, 8, 8, 8, 8, 8, 21, 20, 20, 20, 20, 20, 16, 12, 10, 7, 5, 3, 30, 28, 27, 26, 25, 25, 28, 26, 24, 24, 21, 20, 18, 18, 17, 18, 17, 18, 21, 16, 14, 11, 9, 6, 24, 22, 22, 20, 19, 18, 24, 19, 16, 11, 5, 4, 20, 19, 16, 15, 15, 13, 23, 18, 14, 14, 8, 5, 19, 17, 14, 14, 12, 11, 17, 17, 16, 18, 17, 16, 21, 18, 12, 10, 8, 4, 21, 18, 15, 13, 12, 8, 17, 13, 12, 10, 4, 4, 26, 19, 16, 10, 6, 3, 3, 3, 3, 2, 2, 2, 17, 17, 15, 14, 13, 12, 14, 13, 12, 11, 10, 9, 25, 24, 19, 15, 11, 11, 12, 11, 9, 9, 7, 7, 20, 14, 11, 11, 6, 5, 18, 15, 15, 14, 13, 12, 26, 26, 24, 23, 22, 21, 18, 16, 16, 14, 14, 13, 26, 24, 20, 15, 13, 10, 11, 10, 10, 8, 8, 7, 19, 18, 17, 16, 15, 14, 17, 14, 13, 11, 9, 7|];